RSW02
Position Depot: Random
Horizon for Depot: Small
Position of customers: Random
Distribution of the demand: Medium
Width of time windows: Wide
Distribution of the service: Large

VEHICLE 
NUMBER 	 CAPACITY 
 12 	 	 146 
 
CUSTOMER
CUST NO. 	 XCOORD.  	 YCOORD. 	 DEMAND 	 READY TIME 	 DUE DATE 	 SERVICE TIME 
 0 	 	 931 	 	 171 	 	 0 	 	 0 	 	 1921 	 	 0 
  1 	 	 175 	 	 575 	 	 84 	 	 618 	 	 942 	 	 127 
  2 	 	 796 	 	 152 	 	 2 	 	 1179 	 	 1417 	 	 188 
  3 	 	 245 	 	 118 	 	 1 	 	 349 	 	 756 	 	 150 
  4 	 	 998 	 	 992 	 	 53 	 	 680 	 	 906 	 	 116 
  5 	 	 476 	 	 404 	 	 68 	 	 347 	 	 628 	 	 160 
  6 	 	 239 	 	 652 	 	 10 	 	 459 	 	 927 	 	 197 
  7 	 	 427 	 	 826 	 	 10 	 	 1266 	 	 1610 	 	 116 
  8 	 	 651 	 	 674 	 	 3 	 	 1705 	 	 1921 	 	 116 
  9 	 	 649 	 	 545 	 	 1 	 	 896 	 	 1225 	 	 169 
  10 	 	 561 	 	 178 	 	 6 	 	 1475 	 	 1921 	 	 169 
  11 	 	 828 	 	 626 	 	 4 	 	 519 	 	 813 	 	 190 
  12 	 	 216 	 	 691 	 	 10 	 	 846 	 	 1172 	 	 116 
  13 	 	 213 	 	 47 	 	 4 	 	 611 	 	 1045 	 	 191 
  14 	 	 271 	 	 874 	 	 2 	 	 816 	 	 1060 	 	 104 
  15 	 	 293 	 	 510 	 	 5 	 	 1464 	 	 1853 	 	 144 
  16 	 	 244 	 	 216 	 	 4 	 	 384 	 	 757 	 	 135 
  17 	 	 883 	 	 887 	 	 6 	 	 633 	 	 851 	 	 109 
  18 	 	 218 	 	 865 	 	 8 	 	 888 	 	 1094 	 	 159 
  19 	 	 406 	 	 387 	 	 93 	 	 533 	 	 985 	 	 176 
  20 	 	 616 	 	 8 	 	 2 	 	 1545 	 	 1774 	 	 151 
  21 	 	 416 	 	 965 	 	 7 	 	 686 	 	 1041 	 	 181 
  22 	 	 200 	 	 786 	 	 5 	 	 633 	 	 1050 	 	 104 
  23 	 	 842 	 	 468 	 	 4 	 	 894 	 	 1337 	 	 200 
  24 	 	 262 	 	 848 	 	 4 	 	 1607 	 	 1921 	 	 187 
  25 	 	 668 	 	 142 	 	 88 	 	 1252 	 	 1621 	 	 200 
  26 	 	 245 	 	 644 	 	 1 	 	 614 	 	 962 	 	 102 
  27 	 	 646 	 	 479 	 	 7 	 	 206 	 	 461 	 	 122 
  28 	 	 958 	 	 678 	 	 7 	 	 1494 	 	 1921 	 	 119 
  29 	 	 796 	 	 78 	 	 7 	 	 905 	 	 1399 	 	 188 
  30 	 	 366 	 	 870 	 	 54 	 	 1321 	 	 1633 	 	 125 
  31 	 	 96 	 	 130 	 	 5 	 	 552 	 	 919 	 	 154 
  32 	 	 270 	 	 422 	 	 4 	 	 345 	 	 777 	 	 128 
  33 	 	 645 	 	 283 	 	 9 	 	 1045 	 	 1408 	 	 124 
  34 	 	 966 	 	 986 	 	 86 	 	 1207 	 	 1562 	 	 147 
  35 	 	 717 	 	 201 	 	 6 	 	 418 	 	 901 	 	 170 
  36 	 	 937 	 	 274 	 	 55 	 	 623 	 	 920 	 	 194 
  37 	 	 459 	 	 745 	 	 4 	 	 451 	 	 817 	 	 161 
  38 	 	 449 	 	 5 	 	 69 	 	 99 	 	 560 	 	 149 
  39 	 	 72 	 	 300 	 	 3 	 	 591 	 	 955 	 	 149 
  40 	 	 487 	 	 930 	 	 10 	 	 636 	 	 967 	 	 128 
  41 	 	 252 	 	 386 	 	 6 	 	 1022 	 	 1496 	 	 195 
  42 	 	 51 	 	 308 	 	 6 	 	 1220 	 	 1422 	 	 119 
  43 	 	 487 	 	 510 	 	 1 	 	 214 	 	 614 	 	 183 
  44 	 	 709 	 	 947 	 	 2 	 	 470 	 	 887 	 	 192 
  45 	 	 849 	 	 380 	 	 7 	 	 754 	 	 986 	 	 163 
  46 	 	 186 	 	 525 	 	 4 	 	 656 	 	 907 	 	 193 
  47 	 	 434 	 	 804 	 	 3 	 	 539 	 	 1037 	 	 145 
  48 	 	 728 	 	 612 	 	 9 	 	 1221 	 	 1502 	 	 129 
  49 	 	 262 	 	 563 	 	 2 	 	 1526 	 	 1766 	 	 125 
  50 	 	 576 	 	 447 	 	 1 	 	 502 	 	 814 	 	 109 
  51 	 	 439 	 	 86 	 	 8 	 	 291 	 	 672 	 	 194 
  52 	 	 843 	 	 605 	 	 4 	 	 1488 	 	 1833 	 	 121 
  53 	 	 463 	 	 948 	 	 2 	 	 1288 	 	 1502 	 	 113 
  54 	 	 259 	 	 546 	 	 2 	 	 1299 	 	 1644 	 	 125 
  55 	 	 926 	 	 473 	 	 1 	 	 731 	 	 968 	 	 143 
  56 	 	 476 	 	 462 	 	 4 	 	 714 	 	 1055 	 	 148 
  57 	 	 613 	 	 973 	 	 86 	 	 1517 	 	 1921 	 	 184 
  58 	 	 936 	 	 406 	 	 6 	 	 1540 	 	 1920 	 	 144 
  59 	 	 405 	 	 488 	 	 4 	 	 1162 	 	 1472 	 	 118 
  60 	 	 826 	 	 211 	 	 1 	 	 1027 	 	 1321 	 	 162 
  61 	 	 924 	 	 351 	 	 5 	 	 29 	 	 336 	 	 199 
  62 	 	 713 	 	 985 	 	 9 	 	 597 	 	 926 	 	 191 
  63 	 	 244 	 	 98 	 	 5 	 	 864 	 	 1277 	 	 141 
  64 	 	 866 	 	 592 	 	 3 	 	 854 	 	 1289 	 	 164 
  65 	 	 233 	 	 656 	 	 9 	 	 1553 	 	 1921 	 	 116 
  66 	 	 927 	 	 556 	 	 5 	 	 208 	 	 423 	 	 191 
  67 	 	 851 	 	 35 	 	 6 	 	 1632 	 	 1853 	 	 164 
  68 	 	 472 	 	 592 	 	 8 	 	 1074 	 	 1532 	 	 137 
  69 	 	 556 	 	 408 	 	 6 	 	 293 	 	 742 	 	 110 
  70 	 	 20 	 	 963 	 	 59 	 	 1094 	 	 1327 	 	 183 
  71 	 	 368 	 	 55 	 	 7 	 	 504 	 	 814 	 	 117 
  72 	 	 438 	 	 930 	 	 5 	 	 793 	 	 995 	 	 128 
  73 	 	 217 	 	 271 	 	 5 	 	 759 	 	 1166 	 	 162 
  74 	 	 797 	 	 608 	 	 5 	 	 64 	 	 502 	 	 157 
  75 	 	 465 	 	 948 	 	 10 	 	 609 	 	 996 	 	 181 
  76 	 	 447 	 	 174 	 	 92 	 	 942 	 	 1376 	 	 170 
  77 	 	 362 	 	 637 	 	 4 	 	 1402 	 	 1658 	 	 147 
  78 	 	 744 	 	 41 	 	 8 	 	 -50 	 	 316 	 	 180 
  79 	 	 99 	 	 93 	 	 6 	 	 673 	 	 919 	 	 142 
  80 	 	 132 	 	 249 	 	 5 	 	 423 	 	 883 	 	 150 
  81 	 	 594 	 	 37 	 	 5 	 	 890 	 	 1149 	 	 162 
  82 	 	 687 	 	 421 	 	 1 	 	 1545 	 	 1921 	 	 162 
  83 	 	 376 	 	 549 	 	 66 	 	 319 	 	 738 	 	 192 
  84 	 	 391 	 	 173 	 	 98 	 	 1137 	 	 1525 	 	 108 
  85 	 	 575 	 	 858 	 	 8 	 	 1533 	 	 1921 	 	 125 
  86 	 	 337 	 	 393 	 	 73 	 	 270 	 	 697 	 	 146 
  87 	 	 256 	 	 558 	 	 4 	 	 1382 	 	 1663 	 	 142 
  88 	 	 680 	 	 732 	 	 3 	 	 1619 	 	 1921 	 	 116 
  89 	 	 572 	 	 518 	 	 3 	 	 176 	 	 549 	 	 160 
  90 	 	 475 	 	 98 	 	 3 	 	 654 	 	 898 	 	 195 
  91 	 	 915 	 	 618 	 	 55 	 	 876 	 	 1209 	 	 137 
  92 	 	 154 	 	 588 	 	 97 	 	 719 	 	 970 	 	 174 
  93 	 	 453 	 	 87 	 	 1 	 	 1623 	 	 1921 	 	 167 
  94 	 	 790 	 	 368 	 	 78 	 	 86 	 	 382 	 	 102 
  95 	 	 600 	 	 830 	 	 9 	 	 1575 	 	 1828 	 	 139 
  96 	 	 646 	 	 694 	 	 9 	 	 179 	 	 655 	 	 176 
  97 	 	 611 	 	 267 	 	 3 	 	 1566 	 	 1789 	 	 102 
  98 	 	 577 	 	 193 	 	 2 	 	 1110 	 	 1494 	 	 106 
  99 	 	 678 	 	 727 	 	 5 	 	 386 	 	 671 	 	 127 
  100 	 	 0 	 	 51 	 	 60 	 	 617 	 	 1109 	 	 129 
 